Route #1: 18 10 8 17 14 44 51 28 46
Route #2: 40 5 12 9 38 50 22 23 43
Route #3: 45 41 29 37 15 7 19
Route #4: 2 30 34 54 31 20 55 11 33 49 13
Route #5: 3 36 32 48 27 52 1
Route #6: 16 35 21 26 4 39 47 42
Route #7: 24 6 53 25
Cost 716